; benchmark generated from python API
(set-info :status unknown)
(declare-fun A_3 () Real)
(declare-fun S_0 () Real)
(declare-fun S_4 () Real)
(declare-fun S_3 () Real)
(declare-fun L_1 () Real)
(declare-fun S_1 () Real)
(declare-fun S_2 () Real)
(declare-fun A_0 () Real)
(declare-fun L_0 () Real)
(declare-fun L0 () Real)
(declare-fun A_4 () Real)
(declare-fun A_1 () Real)
(declare-fun A_2 () Real)
(assert
 (let (($x2205 (<= (+ L_1 (* (- (/ 1.0 2.0)) S_3) S_4 (* (/ 1.0 2.0) S_0) (* (- 1.0) A_3)) 0.0)))
 (let (($x3624 (<= (+ S_0 (* (- 1.0) S_2)) (- 5.0))))
 (let (($x3119 (<= (+ L_0 (* (- 1.0) A_0) (* (- 1.0) S_3) (* 2.0 S_1)) 0.0)))
 (let (($x37 (>= L0 0.0)))
 (let (($x2265 (<= (+ L_0 (* (- 1.0) A_0) S_0) 0.0)))
 (let (($x5216 (<= (+ L_1 (* (- 1.0) A_4) S_4) 0.0)))
 (let (($x941 (<= (+ (* (- 1.0) L_1) A_3 (* (- 1.0) S_4)) 0.0)))
 (let (($x5490 (or (<= (+ (* (- 2.0) S_4) (* (- 1.0) S_1) (* 3.0 S_2)) 0.0) $x941)))
 (let (($x2210 (or $x941 (<= (+ (* (- 1.0) S_0) (* (- 3.0) S_4) (* 4.0 S_2)) 0.0))))
 (let (($x4490 (<= (+ L_0 (* (- 2.0) S_4) (* (- 1.0) A_0) (* 3.0 S_2)) 0.0)))
 (let (($x1673 (or $x941 (<= (+ (* (- 1.0) S_0) (* (- 1.0) S_4) (* 2.0 S_1)) 0.0))))
 (let (($x7614 (<= (+ L_0 (* (- (/ 1.0 2.0)) S_4) (* (- 1.0) A_0) (* (/ 3.0 2.0) S_1)) 0.0)))
 (let ((?x528 (* (- 1.0) A_4)))
 (let ((?x1751 (* (/ 1.0 2.0) S_0)))
 (let ((?x4263 (* (- (/ 1.0 2.0)) S_3)))
 (let ((?x253 (* (- 1.0) A_1)))
 (let (($x1050 (<= 0.0 (+ (* (- 1.0) L_1) L_0))))
 (let (($x3915 (or $x1050 (<= (+ L_1 S_0 S_4 (* (- 1.0) S_2) ?x528 ?x253 A_2) 0.0))))
 (let (($x965 (or $x1050 (<= (+ L_1 S_4 (* (- 1.0) S_3) S_1 ?x528 ?x253 A_2) 0.0))))
 (let (($x907 (not (<= (+ A_1 (* (- 1.0) L_1)) S_3))))
 (let (($x54 (= L_1 L_0)))
 (let (($x1301 (or $x54 (not $x1050))))
 (let (($x123 (>= A_2 A_1)))
 (let (($x120 (>= S_4 S_3)))
 (let (($x117 (>= S_3 S_2)))
 (let (($x125 (>= A_4 A_3)))
 (let (($x124 (>= A_3 A_2)))
 (let (($x111 (>= S_1 S_0)))
 (let (($x114 (>= S_2 S_1)))
 (let (($x36 (>= L_0 L0)))
 (let (($x905 (<= (+ A_0 (* (- 1.0) L_0)) S_3)))
 (and $x905 $x36 $x114 $x111 $x124 $x125 $x117 $x120 $x123 $x1301 $x907 $x965 $x3915 (or $x1050 (<= (+ L_1 A_2 ?x253 ?x4263 S_4 ?x1751 ?x528) 0.0)) (or $x941 (<= (+ (* (/ 1.0 3.0) S_0) (* (- (/ 1.0 3.0)) S_4)) (- 5.0))) (or $x941 $x7614) (or (<= (+ (* (- (/ 1.0 2.0)) S_4) (* (/ 1.0 2.0) S_1)) (- 5.0)) $x941) $x1673 (or $x941 (<= (+ (* (- 1.0) S_4) S_2) (- 5.0))) (or $x941 $x4490) $x2210 $x5490 $x5216 $x2265 $x37 (<= (+ ?x4263 ?x1751) (- 5.0)) (<= (+ (* (- 1.0) S_3) S_1) (- 5.0)) $x3119 (<= (+ (* (- 1.0) S_0) (* (- 2.0) S_3) (* 3.0 S_1)) 0.0) (<= (+ L_1 S_4 (* (- 1.0) S_3) S_1 (* (- 1.0) A_3)) 0.0) $x3624 (<= (+ (* (- 2.0) S_3) S_0 S_4) 0.0) (<= (+ (* 2.0 S_0) S_3 (* (- 3.0) S_2)) 0.0) (<= (+ (* 3.0 S_0) S_4 (* (- 4.0) S_2)) 0.0) (<= (+ L_1 S_0 S_4 (* (- 1.0) S_2) (* (- 1.0) A_3)) 0.0) (<= (+ S_4 (* (- 3.0) S_3) (* 2.0 S_1)) 0.0) $x2205)))))))))))))))))))))))))))))))))
(check-sat)
